    # Basic LAMMPS script to model a Y-DNA hydrogel

# Initialize simulation
units lj          # Use Lennard-Jones units
dimension 3       # 3D simulation
boundary p p p    # Periodic boundary conditions
atom_style molecular   # Use molecular atom style

# Read data file
read_data data.y_dna

# Pairwise interactions (Lennard-Jones potential)
pair_style lj/cut 2.5
pair_coeff 1 1 1.0 1.0 2.5  # epsilon = 1.0, sigma = 1.0, cutoff = 2.5

# Bond and angle styles
bond_style harmonic
angle_style harmonic

# Bond coefficients (harmonic potential)
bond_coeff 1 100.0 1.0  # Bond strength = 100, equilibrium distance = 1.0

# Angle coefficients (harmonic potential)
angle_coeff 1 50.0 120.0  # Angle strength = 50, equilibrium angle = 120 degrees

# Minimize energy
minimize 1.0e-4 1.0e-6 1000 10000

# Set up dynamics
fix 1 all nve  # NVE ensemble (constant volume and energy)
timestep 0.005  # Time step

# Run simulation
thermo 100      # Print thermodynamics every 100 steps
run 10000       # Run for 10,000 steps

# Output trajectory
dump 1 all atom 100 traj.dump
dump_modify 1 element C  # Label beads as carbon for visualization

# End script