units lj
dimension 3
atom_style atomic
pair_style lj/cut 2.5
boundary p p p

region simulation_box block -20 20 -20 20 -20 20
create_box 1 simulation_box
create_atoms 1 random 1000 341841 simulation_box

mass 1 1
pair_coeff 1 1 1.0 1.0

dump mydmp all atom 100 dump.lammpstrj
thermo 100
thermo_style custom step temp pe ke etotal press

# minimize
minimize 1.0e-4 1.0e-6 1000 10000

fix mynve all nve
fix mylgv all langevin 1.0 1.0 0.1 1530917
timestep 0.005

run 10000